NAME          DCAP_3_3_2_500_SS172
ROWS
 N  OBJ
 L  CON1
 L  CON2
 L  CON3
 L  CON4
 L  CON5
 L  CON6
 L  CON7
 L  CON8
 L  CON9
 L  CON10
 L  CON11
 L  CON12
 E  CON13
 E  CON14
 E  CON15
 E  CON16
 E  CON17
 E  CON18
COLUMNS
    x[1,1]    OBJ       6.180167      CON1      1.000000    
    x[1,1]    CON7      -1.000000     CON8      -1.000000   
    x[1,2]    OBJ       5.039546      CON2      1.000000    
    x[1,2]    CON8      -1.000000   
    x[2,1]    OBJ       6.732585      CON3      1.000000    
    x[2,1]    CON9      -1.000000     CON10     -1.000000   
    x[2,2]    OBJ       7.443064      CON4      1.000000    
    x[2,2]    CON10     -1.000000   
    x[3,1]    OBJ       6.563535      CON5      1.000000    
    x[3,1]    CON11     -1.000000     CON12     -1.000000   
    x[3,2]    OBJ       6.054841      CON6      1.000000    
    x[3,2]    CON12     -1.000000   
    MARKER    'MARKER'                'INTORG'
    u[1,1]    OBJ       48.076654     CON1      -1.000000   
    u[1,2]    OBJ       49.466655     CON2      -1.000000   
    u[2,1]    OBJ       49.996186     CON3      -1.000000   
    u[2,2]    OBJ       32.230043     CON4      -1.000000   
    u[3,1]    OBJ       20.066487     CON5      -1.000000   
    u[3,2]    OBJ       27.484319     CON6      -1.000000   
    y[1,1,1]  OBJ       5.337380      CON7      1.308061    
    y[1,1,1]  CON13     1.000000    
    y[1,1,2]  OBJ       5.402494      CON8      0.593337    
    y[1,1,2]  CON14     1.000000    
    y[1,2,1]  OBJ       7.494310      CON7      0.585881    
    y[1,2,1]  CON15     1.000000    
    y[1,2,2]  OBJ       7.534653      CON8      1.299665    
    y[1,2,2]  CON16     1.000000    
    y[1,3,1]  OBJ       5.014765      CON7      0.790922    
    y[1,3,1]  CON17     1.000000    
    y[1,3,2]  OBJ       8.742486      CON8      1.468523    
    y[1,3,2]  CON18     1.000000    
    y[2,1,1]  OBJ       5.456401      CON9      1.308061    
    y[2,1,1]  CON13     1.000000    
    y[2,1,2]  OBJ       9.556672      CON10     0.593337    
    y[2,1,2]  CON14     1.000000    
    y[2,2,1]  OBJ       8.884236      CON9      0.585881    
    y[2,2,1]  CON15     1.000000    
    y[2,2,2]  OBJ       5.521551      CON10     1.299665    
    y[2,2,2]  CON16     1.000000    
    y[2,3,1]  OBJ       7.375202      CON9      0.790922    
    y[2,3,1]  CON17     1.000000    
    y[2,3,2]  OBJ       8.001514      CON10     1.468523    
    y[2,3,2]  CON18     1.000000    
    y[3,1,1]  OBJ       5.351922      CON11     1.308061    
    y[3,1,1]  CON13     1.000000    
    y[3,1,2]  OBJ       9.299472      CON12     0.593337    
    y[3,1,2]  CON14     1.000000    
    y[3,2,1]  OBJ       6.788898      CON11     0.585881    
    y[3,2,1]  CON15     1.000000    
    y[3,2,2]  OBJ       6.702691      CON12     1.299665    
    y[3,2,2]  CON16     1.000000    
    y[3,3,1]  OBJ       5.419461      CON11     0.790922    
    y[3,3,1]  CON17     1.000000    
    y[3,3,2]  OBJ       7.967121      CON12     1.468523    
    y[3,3,2]  CON18     1.000000    
    z[1,1]    OBJ       777.389590    CON13     1.000000    
    z[1,2]    OBJ       832.340879    CON14     1.000000    
    z[2,1]    OBJ       882.784323    CON15     1.000000    
    z[2,2]    OBJ       638.958428    CON16     1.000000    
    z[3,1]    OBJ       945.998956    CON17     1.000000    
    z[3,2]    OBJ       748.855134    CON18     1.000000    
    MARKER    'MARKER'                 'INTEND'
RHS
    RHS       CON1      -0.000000     CON2      -0.000000   
    RHS       CON3      -0.000000     CON4      -0.000000   
    RHS       CON5      -0.000000     CON6      -0.000000   
    RHS       CON7      -0.000000     CON8      -0.000000   
    RHS       CON9      -0.000000     CON10     -0.000000   
    RHS       CON11     -0.000000     CON12     -0.000000   
    RHS       CON13     1.000000      CON14     1.000000    
    RHS       CON15     1.000000      CON16     1.000000    
    RHS       CON17     1.000000      CON18     1.000000    
BOUNDS
 BV BOUND     u[1,1]  
 BV BOUND     u[1,2]  
 BV BOUND     u[2,1]  
 BV BOUND     u[2,2]  
 BV BOUND     u[3,1]  
 BV BOUND     u[3,2]  
 BV BOUND     y[1,1,1]
 BV BOUND     y[1,1,2]
 BV BOUND     y[1,2,1]
 BV BOUND     y[1,2,2]
 BV BOUND     y[1,3,1]
 BV BOUND     y[1,3,2]
 BV BOUND     y[2,1,1]
 BV BOUND     y[2,1,2]
 BV BOUND     y[2,2,1]
 BV BOUND     y[2,2,2]
 BV BOUND     y[2,3,1]
 BV BOUND     y[2,3,2]
 BV BOUND     y[3,1,1]
 BV BOUND     y[3,1,2]
 BV BOUND     y[3,2,1]
 BV BOUND     y[3,2,2]
 BV BOUND     y[3,3,1]
 BV BOUND     y[3,3,2]
 BV BOUND     z[1,1]  
 BV BOUND     z[1,2]  
 BV BOUND     z[2,1]  
 BV BOUND     z[2,2]  
 BV BOUND     z[3,1]  
 BV BOUND     z[3,2]  
ENDATA
